letting n =  10
letting blocks =  [[1, 1], [1, 4], [1, 6], [2, 2], [2, 4], [2, 8], [2, 9], [2, 10], [3, 2], [3, 3], [3, 5], [3, 6], [3, 7], [3, 9], [4, 1], [4, 2], [4, 3], [4, 6], [4, 8], [4, 10], [5, 1], [5, 5], [5, 6], [5, 7], [5, 9], [6, 1], [6, 3], [6, 5], [6, 8], [6, 9], [6, 10], [7, 1], [7, 2], [7, 4], [7, 6], [7, 7], [7, 8], [8, 4], [8, 6], [8, 7], [8, 8], [8, 10], [9, 1], [9, 3], [9, 4], [9, 5], [9, 8], [9, 10], [10, 3], [10, 4], [10, 5], [10, 7], [10, 9], [10, 10]]
